NAME: bip_50_7
TYPE: TSP
COMMENT: bip_50_7
DIMENSION: 50
EDGE_WEIGHT_TYPE: EUC_2D
NODE_COORD_SECTION
1 35 98
2 25 68
3 65 8
4 43 15
5 65 73
6 67 80
7 18 37
8 24 59
9 5 29
10 5 56
11 9 73
12 39 4
13 68 80
14 19 41
15 53 0
16 18 50
17 5 76
18 15 81
19 90 49
20 4 71
21 41 38
22 13 21
23 66 15
24 33 61
25 11 95
26 426 495
27 472 407
28 470 416
29 498 432
30 445 474
31 434 484
32 401 420
33 437 418
34 436 442
35 496 400
36 489 403
37 440 433
38 494 441
39 420 423
40 405 483
41 402 497
42 435 490
43 420 497
44 471 434
45 488 454
46 458 402
47 439 457
48 417 451
49 418 471
50 457 432
